15 10
2 1 4 3 7 2 9 4 8 11 1 0
2 4 4 1 7 3 9 1 8 7 1 0
2 7 4 4 7 7 9 4 8 3 1 0
2 2 4 4 7 5 9 2 8 2 1 0
2 9 4 3 7 28 9 4 8 2 1 0
2 1 4 2 7 4 9 2 8 5 1 0
2 1 4 3 7 4 9 2 8 5 1 0
2 3 4 2 7 1 9 2 8 11 1 0
2 3 4 22 7 5 9 16 8 2 1 0
2 5 4 56 7 2 9 1 8 5 1 0
2 1 4 5 7 10 9 1 8 2 1 0
2 8 4 3 7 2 9 5 8 5 1 0
2 2 4 6 7 4 9 3 8 2 1 0
2 2 4 4 7 2 9 5 8 2 1 0
2 2 4 8 7 2 9 3 8 5 1 0